<number of tasks>
30

<cycle time>
25

<task times>
1 8
2 7
3 19
4 10
5 2
6 6
7 14
8 10
9 1
10 4
11 14
12 15
13 5
14 12
15 9
16 10
17 2
18 10
19 18
20 16
21 21
22 14
23 16
24 7
25 17
26 9
27 25
28 7
29 14
30 2

<task process alternatives>
1: 7,15 ; 10,8
2: 6,15 ; 9,8
3: 16,15 ; 23,8
4: 8,15 ; 12,8
5: 2,15 ; 3,8
6: 5,15 ; 8,8
7: 12,15 ; 17,8
8: 8,15 ; 12,8
9: 1,15 ; 2,8
10: 4,15 ; 5,8
11: 12,15 ; 17,8
12: 12,15 ; 18,8
13: 4,15 ; 6,8
14: 10,15 ; 15,8
15: 8,15 ; 11,8
16: 8,15 ; 12,8
17: 2,15 ; 3,8
18: 8,15 ; 12,8
19: 15,15 ; 22,8
20: 13,15 ; 20,8
21: 17,15 ; 26,8
22: 12,15 ; 17,8
23: 13,15 ; 20,8
24: 6,15 ; 9,8
25: 14,15 ; 21,8
26: 8,15 ; 11,8
27: 20,15 ; 30,8
28: 6,15 ; 9,8
29: 12,15 ; 17,8
30: 2,15 ; 3,8

<incompatible tasks>
25,1
21,27
20,28
30,23

<precedence relations>
16,20
26,27
12,13
21,22
3,16
22,23
8,9
17,18
2,11
27,28
25,26
9,26
13,14
10,24
18,19
5,6
14,15
23,27
1,5
6,7
24,25
15,22
4,7
20,21
29,30
20,24
3,17
14,20
1,4
2,12
27,29
7,8

<number of task attributes>
3

<task attribute values>
1,1:70
1,2:99
1,3:92
2,1:6
2,3:2
3,2:68
3,3:37
4,1:16
4,3:4
5,1:91
5,2:94
5,3:2
6,1:7
6,2:4
6,3:35
7,1:7
7,2:21
7,3:7
8,1:80
8,2:37
8,3:13
9,1:9
9,2:32
9,3:26
10,1:92
10,2:71
10,3:64
11,1:75
11,2:6
11,3:64
12,2:1
12,3:30
13,1:81
13,2:23
13,3:5
14,1:9
14,2:89
14,3:32
15,1:84
15,2:23
15,3:84
16,1:52
16,2:1
16,3:87
17,1:83
17,2:19
17,3:69
18,1:24
18,2:53
18,3:10
19,1:51
19,2:4
19,3:6
20,1:5
20,2:47
20,3:3
21,2:1
21,3:25
22,1:3
22,2:6
22,3:15
23,1:32
23,2:92
23,3:7
24,1:99
24,2:63
24,3:35
25,2:5
25,3:49
26,1:28
26,2:3
26,3:37
27,1:10
27,2:90
27,3:63
28,1:36
28,2:49
28,3:84
29,1:13
29,2:58
29,3:6
30,1:3
30,2:14
30,3:2

<attribute bounds per station>
1:100
2:100
3:100

<linked tasks>
8,9
11,18

<optimal SALBP-1 value>
14

<rand seed>
236278236

<end>
